n_res = 4;
rc = [ 24, 18, 27, 17 ];
n_tasks = 30;
d = [ 6, 6, 3, 5, 7, 3, 9, 8, 9, 7, 6, 9, 10, 9, 5, 8, 10, 9, 2, 10, 6, 2, 1, 3, 2, 3, 1, 9, 5, 2 ];
rr = [| 0, 6, 0, 0, 8, 0, 6, 10, 0, 0, 5, 10, 0, 0, 0, 2, 0, 0, 8, 10, 3, 1, 0, 0, 10, 0, 6, 0, 1, 3
      | 0, 0, 3, 0, 5, 0, 0, 4, 0, 3, 1, 0, 0, 7, 8, 0, 0, 0, 0, 9, 0, 0, 9, 0, 10, 0, 6, 1, 0, 0
      | 5, 6, 0, 4, 0, 9, 4, 0, 0, 0, 6, 0, 10, 5, 3, 10, 3, 7, 8, 8, 4, 4, 3, 6, 0, 10, 6, 0, 8, 0
      | 0, 3, 0, 0, 2, 3, 0, 0, 4, 5, 0, 7, 0, 0, 0, 6, 0, 0, 5, 0, 1, 0, 0, 10, 5, 7, 0, 0, 0, 10 |];
suc = [ { 2 }, 
        { 3 }, 
        { 4 }, 
        { 5 }, 
        { 6 }, 
        { 7 }, 
        { 8 }, 
        { 9 }, 
        { 10 }, 
        { 11 }, 
        { 12 }, 
        { 13 }, 
        { 14 }, 
        { 15 }, 
        { 16 }, 
        { 17 }, 
        { 18 }, 
        { 19 }, 
        { 20 }, 
        { 21 }, 
        { 22 }, 
        { 23 }, 
        { 24 }, 
        { 25 }, 
        { 26 }, 
        { 27 }, 
        { 28 }, 
        { 29 }, 
        { 30 }, 
        {  }]; 
